proyfinal/src/viki/013/experimentInOfficeAgust.take6.output/d9006597-9b15-4d50-a479-06742be00e5a.als.dat
{'cnf.clauses': '118081',
 'cnf.totvars': '69608',
 'conflict literals': '11',
 'conflicts': '8',
 'decisions': '7096',
 'memused.mb': '14.86',
 'outcome': 'UNSAT',
 'propagations': '34500',
 'restarts': '1',
 'solver.msecs': 32,
 'task.msecs': 149}
