proyfinal/src/viki/013/experimentInOfficeAgust.take6.output/d9006597-9b15-4d50-a479-06742be00e5a.als.out
Reading from standard input... Use '--help' for help.
============================[ Problem Statistics ]=============================
|                                                                             |
|  Number of variables:         69608                                         |
|  Number of clauses:          118081                                         |
|  Parse time:                   0.02 s                                       |
|                                                                             |
============================[ Search Statistics ]==============================
| Conflicts |          ORIGINAL         |          LEARNT          | Progress |
|           |    Vars  Clauses Literals |    Limit  Clauses Lit/Cl |          |
===============================================================================
===============================================================================
restarts              : 1
conflicts             : 8              (246 /sec)
decisions             : 7096           (0.00 % random) (217762 /sec)
propagations          : 34500          (1058737 /sec)
conflict literals     : 11             (0.00 % deleted)
Memory used           : 14.86 MB
CPU time              : 0.032586 s

UNSATISFIABLE
